#This is Python generated data file for Pyomo model DCLF.py
#_author_:W. Bukhsh
#Time stamp: 2018-08-03 11:00:49.851269
set B:=
1
2
3
4
5
6
7
8
9
10
11
12
13
14
15
16
17
18
19
20
21
22
23
24
;
set G:=
G1
G2
G3
G4
G5
G6
G7
G8
G9
G10
G11
G12
G13
G14
G15
G16
G17
G18
G19
G20
G21
G22
G23
G24
G25
G26
G27
G28
G29
G30
G31
G32
G33
;
set D:=
D1
D2
D3
D4
D5
D6
D7
D8
D9
D10
D13
D14
D15
D16
D18
D19
D20
;
param PD:=
D1 1.08
D2 0.97
D3 1.8
D4 0.74
D5 0.71
D6 1.36
D7 1.25
D8 1.71
D9 1.75
D10 1.95
D13 2.65
D14 1.94
D15 3.17
D16 1.0
D18 3.33
D19 1.81
D20 1.28
;
param VOLL:=
D1 100000.0
D2 100000.0
D3 100000.0
D4 100000.0
D5 100000.0
D6 100000.0
D7 100000.0
D8 100000.0
D9 100000.0
D10 100000.0
D13 100000.0
D14 100000.0
D15 100000.0
D16 100000.0
D18 100000.0
D19 100000.0
D20 100000.0
;
param baseMVA:=
100
;
set LE:=
 1 
 2;
set L:=
L1-12
L2-13
L3-15
L4-24
L5-26
L6-39
L7-49
L8-510
L9-610
L10-78
L11-89
L12-810
L13-1113
L14-1114
L15-1213
L16-1223
L17-1323
L18-1416
L19-1516
L20-1521
L21-1521
L22-1524
L23-1617
L24-1619
L25-1718
L26-1722
L27-1821
L28-1821
L29-1920
L30-1920
L31-2023
L32-2023
L33-2122
;
set TRANSF:= 
T1-324
T2-911
T3-912
T4-1011
T5-1012
;
set Gbs:=
1 G1
1 G2
1 G3
1 G4
2 G5
2 G6
2 G7
2 G8
7 G9
7 G10
7 G11
13 G12
13 G13
13 G14
14 G15
15 G16
15 G17
15 G18
15 G19
15 G20
15 G21
16 G22
18 G23
21 G24
22 G25
22 G26
22 G27
22 G28
22 G29
22 G30
23 G31
23 G32
23 G33
;
set Dbs:=
1 D1
2 D2
3 D3
4 D4
5 D5
6 D6
7 D7
8 D8
9 D9
10 D10
13 D13
14 D14
15 D15
16 D16
18 D18
19 D19
20 D20
;
set b0:=
13
;
param A:=
L1-12 1 1
L2-13 1 1
L3-15 1 1
L4-24 1 2
L5-26 1 2
L6-39 1 3
L7-49 1 4
L8-510 1 5
L9-610 1 6
L10-78 1 7
L11-89 1 8
L12-810 1 8
L13-1113 1 11
L14-1114 1 11
L15-1213 1 12
L16-1223 1 12
L17-1323 1 13
L18-1416 1 14
L19-1516 1 15
L20-1521 1 15
L21-1521 1 15
L22-1524 1 15
L23-1617 1 16
L24-1619 1 16
L25-1718 1 17
L26-1722 1 17
L27-1821 1 18
L28-1821 1 18
L29-1920 1 19
L30-1920 1 19
L31-2023 1 20
L32-2023 1 20
L33-2122 1 21
L1-12 2 2
L2-13 2 3
L3-15 2 5
L4-24 2 4
L5-26 2 6
L6-39 2 9
L7-49 2 9
L8-510 2 10
L9-610 2 10
L10-78 2 8
L11-89 2 9
L12-810 2 10
L13-1113 2 13
L14-1114 2 14
L15-1213 2 13
L16-1223 2 23
L17-1323 2 23
L18-1416 2 16
L19-1516 2 16
L20-1521 2 21
L21-1521 2 21
L22-1524 2 24
L23-1617 2 17
L24-1619 2 19
L25-1718 2 18
L26-1722 2 22
L27-1821 2 21
L28-1821 2 21
L29-1920 2 20
L30-1920 2 20
L31-2023 2 23
L32-2023 2 23
L33-2122 2 22
;
param AT:= 
T1-324 1 3
T2-911 1 9
T3-912 1 9
T4-1011 1 10
T5-1012 1 10
T1-324 2 24
T2-911 2 11
T3-912 2 12
T4-1011 2 11
T5-1012 2 12
;
param PG:=
G1 0.1
G2 0.1
G3 0.76
G4 0.76
G5 0.1
G6 0.1
G7 0.76
G8 0.76
G9 0.8
G10 0.8
G11 0.8
G12 0.951
G13 0.951
G14 0.951
G15 0.0
G16 0.12
G17 0.12
G18 0.12
G19 0.12
G20 0.12
G21 1.55
G22 1.55
G23 4.0
G24 4.0
G25 0.5
G26 0.5
G27 0.5
G28 0.5
G29 0.5
G30 0.5
G31 1.55
G32 1.55
G33 3.5
;
param Tap:=
T1-324 1.03
T2-911 1.03
T3-912 1.03
T4-1011 1.02
T5-1012 1.02
;
set SHUNT:=
S6
;
set SHUNTbs:=
6 S6
;
param GB:=
S6 0.0
;
param BB:=
S6 -1.0
;
param QD:=
D1 0.22
D2 0.2
D3 0.37
D4 0.15
D5 0.14
D6 0.28
D7 0.25
D8 0.35
D9 0.36
D10 0.4
D13 0.54
D14 0.39
D15 0.64
D16 0.2
D18 0.68
D19 0.37
D20 0.26
;
param G11:=
L1-12 13.0019502925
L2-13 1.14738182598
L3-15 2.86258664905
L4-24 1.91491137989
L5-26 1.26353501505
L6-39 2.03843374164
L7-49 2.33613698828
L8-510 2.74146208907
L9-610 3.60714786192
L10-78 3.95250039152
L11-89 1.46829749702
L12-810 1.46829749702
L13-1113 2.64875356605
L14-1114 3.03985588831
L15-1213 2.64875356605
L16-1223 1.30728325454
L17-1323 1.45947779621
L18-1416 3.25053146189
L19-1516 7.23374872587
L20-1521 2.58123727307
L21-1521 2.58123727307
L22-1524 2.4465948512
L23-1617 4.84083907877
L24-1619 5.52883286338
L25-1718 8.54700854701
L26-1722 1.19783431556
L27-1821 4.84083907877
L28-1821 4.84083907877
L29-1920 3.19915692806
L30-1920 3.19915692806
L31-2023 5.90219224283
L32-2023 5.90219224283
L33-2122 1.86194631174
;
param G12:=
L1-12 -13.0019502925
L2-13 -1.14738182598
L3-15 -2.86258664905
L4-24 -1.91491137989
L5-26 -1.26353501505
L6-39 -2.03843374164
L7-49 -2.33613698828
L8-510 -2.74146208907
L9-610 -3.60714786192
L10-78 -3.95250039152
L11-89 -1.46829749702
L12-810 -1.46829749702
L13-1113 -2.64875356605
L14-1114 -3.03985588831
L15-1213 -2.64875356605
L16-1223 -1.30728325454
L17-1323 -1.45947779621
L18-1416 -3.25053146189
L19-1516 -7.23374872587
L20-1521 -2.58123727307
L21-1521 -2.58123727307
L22-1524 -2.4465948512
L23-1617 -4.84083907877
L24-1619 -5.52883286338
L25-1718 -8.54700854701
L26-1722 -1.19783431556
L27-1821 -4.84083907877
L28-1821 -4.84083907877
L29-1920 -3.19915692806
L30-1920 -3.19915692806
L31-2023 -5.90219224283
L32-2023 -5.90219224283
L33-2122 -1.86194631174
;
param G21:=
L1-12 -13.0019502925
L2-13 -1.14738182598
L3-15 -2.86258664905
L4-24 -1.91491137989
L5-26 -1.26353501505
L6-39 -2.03843374164
L7-49 -2.33613698828
L8-510 -2.74146208907
L9-610 -3.60714786192
L10-78 -3.95250039152
L11-89 -1.46829749702
L12-810 -1.46829749702
L13-1113 -2.64875356605
L14-1114 -3.03985588831
L15-1213 -2.64875356605
L16-1223 -1.30728325454
L17-1323 -1.45947779621
L18-1416 -3.25053146189
L19-1516 -7.23374872587
L20-1521 -2.58123727307
L21-1521 -2.58123727307
L22-1524 -2.4465948512
L23-1617 -4.84083907877
L24-1619 -5.52883286338
L25-1718 -8.54700854701
L26-1722 -1.19783431556
L27-1821 -4.84083907877
L28-1821 -4.84083907877
L29-1920 -3.19915692806
L30-1920 -3.19915692806
L31-2023 -5.90219224283
L32-2023 -5.90219224283
L33-2122 -1.86194631174
;
param G22:=
L1-12 13.0019502925
L2-13 1.14738182598
L3-15 2.86258664905
L4-24 1.91491137989
L5-26 1.26353501505
L6-39 2.03843374164
L7-49 2.33613698828
L8-510 2.74146208907
L9-610 3.60714786192
L10-78 3.95250039152
L11-89 1.46829749702
L12-810 1.46829749702
L13-1113 2.64875356605
L14-1114 3.03985588831
L15-1213 2.64875356605
L16-1223 1.30728325454
L17-1323 1.45947779621
L18-1416 3.25053146189
L19-1516 7.23374872587
L20-1521 2.58123727307
L21-1521 2.58123727307
L22-1524 2.4465948512
L23-1617 4.84083907877
L24-1619 5.52883286338
L25-1718 8.54700854701
L26-1722 1.19783431556
L27-1821 4.84083907877
L28-1821 4.84083907877
L29-1920 3.19915692806
L30-1920 3.19915692806
L31-2023 5.90219224283
L32-2023 5.90219224283
L33-2122 1.86194631174
;
param B11:=
L1-12 -69.279876564
L2-13 -4.40962420597
L3-15 -11.0843560479
L4-24 -7.37977901926
L5-26 -4.85526202996
L6-39 -7.85966672906
L7-49 -9.02540543601
L8-510 -10.6052036169
L9-610 -14.4706759458
L10-78 -15.2548147195
L11-89 -5.65483774608
L12-810 -5.65483774608
L13-1113 -20.6190122531
L14-1114 -23.4867863206
L15-1213 -20.6190122531
L16-1223 -10.0826582572
L17-1323 -11.2825080516
L18-1416 -25.2482347735
L19-1516 -56.8653695262
L20-1521 -20.0247899016
L21-1521 -20.0247899016
L22-1524 -18.8974310115
L23-1617 -37.9660021637
L24-1619 -42.547763048
L25-1718 -68.3609183761
L26-1722 -9.23250766135
L27-1821 -37.9660021637
L28-1821 -37.9660021637
L29-1920 -24.7988626179
L30-1920 -24.7988626179
L31-2023 -45.5084473019
L32-2023 -45.5084473019
L33-2122 -14.4391402225
;
param B12:=
L1-12 69.510426564
L2-13 4.43822420597
L3-15 11.0958060479
L4-24 7.39692901926
L5-26 4.88126202996
L6-39 7.87576672906
L7-49 9.03945543601
L8-510 10.6171536169
L9-610 15.7001759458
L10-78 15.2631147195
L11-89 5.67718774608
L12-810 5.67718774608
L13-1113 20.6689622531
L14-1114 23.5307363206
L15-1213 20.6689622531
L16-1223 10.1841582572
L17-1323 11.3734080516
L18-1416 25.2891347735
L19-1516 56.8835695262
L20-1521 20.0762899016
L21-1521 20.0762899016
L22-1524 18.9519810115
L23-1617 37.9932521637
L24-1619 42.572013048
L25-1718 68.3760683761
L26-1722 9.34310766135
L27-1821 37.9932521637
L28-1821 37.9932521637
L29-1920 24.8405126179
L30-1920 24.8405126179
L31-2023 45.5311973019
L32-2023 45.5311973019
L33-2122 14.5103402225
;
param B21:=
L1-12 69.510426564
L2-13 4.43822420597
L3-15 11.0958060479
L4-24 7.39692901926
L5-26 4.88126202996
L6-39 7.87576672906
L7-49 9.03945543601
L8-510 10.6171536169
L9-610 15.7001759458
L10-78 15.2631147195
L11-89 5.67718774608
L12-810 5.67718774608
L13-1113 20.6689622531
L14-1114 23.5307363206
L15-1213 20.6689622531
L16-1223 10.1841582572
L17-1323 11.3734080516
L18-1416 25.2891347735
L19-1516 56.8835695262
L20-1521 20.0762899016
L21-1521 20.0762899016
L22-1524 18.9519810115
L23-1617 37.9932521637
L24-1619 42.572013048
L25-1718 68.3760683761
L26-1722 9.34310766135
L27-1821 37.9932521637
L28-1821 37.9932521637
L29-1920 24.8405126179
L30-1920 24.8405126179
L31-2023 45.5311973019
L32-2023 45.5311973019
L33-2122 14.5103402225
;
param B22:=
L1-12 -69.279876564
L2-13 -4.40962420597
L3-15 -11.0843560479
L4-24 -7.37977901926
L5-26 -4.85526202996
L6-39 -7.85966672906
L7-49 -9.02540543601
L8-510 -10.6052036169
L9-610 -14.4706759458
L10-78 -15.2548147195
L11-89 -5.65483774608
L12-810 -5.65483774608
L13-1113 -20.6190122531
L14-1114 -23.4867863206
L15-1213 -20.6190122531
L16-1223 -10.0826582572
L17-1323 -11.2825080516
L18-1416 -25.2482347735
L19-1516 -56.8653695262
L20-1521 -20.0247899016
L21-1521 -20.0247899016
L22-1524 -18.8974310115
L23-1617 -37.9660021637
L24-1619 -42.547763048
L25-1718 -68.3609183761
L26-1722 -9.23250766135
L27-1821 -37.9660021637
L28-1821 -37.9660021637
L29-1920 -24.7988626179
L30-1920 -24.7988626179
L31-2023 -45.5084473019
L32-2023 -45.5084473019
L33-2122 -14.4391402225
;
param G11T:=
T1-324 0.307753650509
T2-911 0.307753650509
T3-912 0.307753650509
T4-1011 0.313817616133
T5-1012 0.313817616133
;
param G12T:=
T1-324 -0.316986260024
T2-911 -0.316986260024
T3-912 -0.316986260024
T4-1011 -0.320093968455
T5-1012 -0.320093968455
;
param G21T:=
T1-324 -0.316986260024
T2-911 -0.316986260024
T3-912 -0.316986260024
T4-1011 -0.320093968455
T5-1012 -0.320093968455
;
param G22T:=
T1-324 0.326495847825
T2-911 0.326495847825
T3-912 0.326495847825
T4-1011 0.326495847825
T5-1012 0.326495847825
;
param B11T:=
T1-324 -11.2263179468
T2-911 -11.2263179468
T3-912 -11.2263179468
T4-1011 -11.4475208668
T5-1012 -11.4475208668
;
param B12T:=
T1-324 11.5631074852
T2-911 11.5631074852
T3-912 11.5631074852
T4-1011 11.6764712841
T5-1012 11.6764712841
;
param B21T:=
T1-324 11.5631074852
T2-911 11.5631074852
T3-912 11.5631074852
T4-1011 11.6764712841
T5-1012 11.6764712841
;
param B22T:=
T1-324 -11.9100007098
T2-911 -11.9100007098
T3-912 -11.9100007098
T4-1011 -11.9100007098
T5-1012 -11.9100007098
;
set g0:=
G12
;
set DistSlac:=
G1
G2
G3
G4
G5
G6
G7
;
set Transf2:=
T1-324
;
set Bvolt:=
3
;
param VTar:=
3 1.05
;
param VS:=
G1 1.035
G2 1.035
G3 1.035
G4 1.035
G5 1.035
G6 1.035
G7 1.035
G8 1.035
G9 1.025
G10 1.025
G11 1.025
G12 1.02
G13 1.02
G14 1.02
G15 0.98
G16 1.014
G17 1.014
G18 1.014
G19 1.014
G20 1.014
G21 1.014
G22 1.017
G23 1.05
G24 1.05
G25 1.05
G26 1.05
G27 1.05
G28 1.05
G29 1.05
G30 1.05
G31 1.05
G32 1.05
G33 1.05
;
param TapLB:=
T1-324 0.9785
T2-911 0.9785
T3-912 0.9785
T4-1011 0.969
T5-1012 1.0
;
param TapUB:=
T1-324 1.1
T2-911 1.1
T3-912 1.1
T4-1011 1.1
T5-1012 1.02
;
param bC:=
T1-324 0
T2-911 0
T3-912 0
T4-1011 0
T5-1012 0
;
param g:=
T1-324 0.326495847825
T2-911 0.326495847825
T3-912 0.326495847825
T4-1011 0.326495847825
T5-1012 0.326495847825
;
param b:=
T1-324 -11.9100007098
T2-911 -11.9100007098
T3-912 -11.9100007098
T4-1011 -11.9100007098
T5-1012 -11.9100007098
;
